10
1 0 76
2 0 72
2 1 44
3 0 5
3 1 49
3 2 11
4 0 76
4 1 32
4 2 3
4 3 60
5 0 65
5 1 60
5 2 39
5 3 42
5 4 78
6 0 6
6 1 63
6 2 21
6 3 31
6 4 26
6 5 72
7 0 15
7 1 70
7 2 64
7 3 63
7 4 25
7 5 41
7 6 76
8 0 48
8 1 5
8 2 55
8 3 17
8 4 80
8 5 11
8 6 58
8 7 75
9 0 2
9 1 36
9 2 46
9 3 34
9 4 57
9 5 60
9 6 10
9 7 53
9 8 52
